26 26 5
0 1
1 2
2 3
3 8
4 5
5 6
6 7
7 8
9 10
10 13
9 11
11 13
9 12
12 13
14 15
15 18
14 16
16 18
14 17
17 18
19 20
20 21
21 25
22 23
23 24
24 25
4 0 84 2 84 1 87 3 91
3 3 66 0 77 2 70
3 4 13 0 35 3 23
2 1 2 3 4
3 2 98 3 98 1 99
4 2 24 1 69 0 51 3 30
4 4 35 1 40 2 83 3 51
2 4 1 1 1
3 0 79 4 90 3 86
4 3 8 0 23 1 8 4 20
4 2 44 3 62 0 96 1 98
3 1 3 2 8 4 6
2 4 7 1 17
3 4 63 2 83 0 68
4 0 64 1 70 3 82 4 81
2 2 61 1 65
3 4 62 3 64 2 78
4 4 69 3 94 1 90 2 69
3 0 53 3 54 2 70
4 0 57 1 62 4 64 3 80
2 4 81 3 93
4 4 25 3 66 1 27 0 57
4 2 20 0 28 1 56 4 39
4 1 38 2 95 0 51 4 55
2 4 4 3 12
2 2 34 4 85
